25 40
1 2 2
1 6 2
2 3 3
2 7 4
3 4 3
3 8 4
4 5 3
4 9 4
5 10 1
6 7 4
6 11 2
7 8 3
7 12 1
8 9 3
8 13 3
9 10 1
9 14 3
10 15 4
11 12 1
11 16 3
12 13 2
12 17 1
13 14 4
13 18 3
14 15 4
14 19 3
15 20 3
16 17 1
16 21 5
17 18 3
17 22 1
18 19 3
18 23 4
19 20 4
19 24 5
20 25 4
21 22 3
22 23 1
23 24 3
24 25 5
